
%FILE DATA:	Soccer Computational Problem for MiniZinc Models	%
%AUTHOR:	Jack Wall	%
%CONTACT:  	116397063@umail.ucc.ie			%
%LAST UPDATE:	02/24/2020, 18:47:36						%
%DESCRIPTION: 	24 games played with 6 games left				%


n=6; %number of teams

%Games to play
games=[|3,5|1,2|5,2|5,1|5,4|4,5|];

%Initial points
iPoints=[9,9,20,10,7,13];

%POSITION CONSTRAINTS
% [|teamID, operator, position|...]
% operators index:
%  1 for =  operator
%  2 for >  operator
%  3 for >= operator
%  4 for <  operator
%  5 for <= operator
positionConstraints=[|3,1,1|5,2,1|6,2,2|];